p cnf 25 20
19 1 -16 0
-16 -21 10 0
-1 -6 8 -25 -13 0
-16 -6 1 -9 2 -14 -25 23 21 -17 -12 7 4 -11 22 -10 0
-2 18 7 -10 0
22 -2 6 0
25 12 -19 0
5 13 9 0
8 18 20 0
11 20 5 0
-12 -24 -25 15 -10 -23 0
24 23 -17 4 0
-12 14 -7 -19 -5 -22 25 -2 -13 1 8 -11 23 4 10 -20 0
-24 -23 8 14 10 18 -3 6 -16 13 2 -25 11 20 -7 1 -19 -5 -21 -9 4 0
-5 7 4 9 -24 -20 22 -13 -11 -15 -23 14 -21 -25 -3 16 18 -8 -2 19 -17 1 10 0
-3 -4 -19 18 0
12 -14 20 -7 0
-20 -24 0
-18 -23 10 -20 15 -25 7 8 -22 3 -4 9 19 0
-24 -25 10 4 -3 19 -1 -11 20 18 -13 8 -9 16 5 0
